249 1000
1 466
2 261
3 273
4 497
5 250 29 36 40 53 72 82 102 118 125 126 137 148 153 155 165 174 183 184 193 201 215 221 222 244 246 249
6 253
7 382
8 308 82 126 148 153 155 183 222 249
9 310
10 424
11 273
12 303 82 126 148 153 155 183 222 244 249
13 385 25 29 34 36 40 48 51 53 57 58 131 67 72 78 82 93 97 102 104 110 118 125 126 137 139 148 150 151 153 155 165 169 174 183 184 193 196 198 201 207 215 216 218 221 222 224 225 227 228 235 237 238 244 246 249
14 283
15 332
16 425
17 254
18 321
19 464
20 253
21 283
22 443
23 258
24 299
25 401 29 32 34 36 40 48 51 53 57 58 131 67 72 75 78 82 93 97 102 104 107 110 118 125 126 137 139 143 148 150 151 153 155 156 165 169 174 183 184 193 196 198 201 207 215 216 218 221 222 224 225 227 228 235 237 238 244 246 248 249
26 276
27 323
28 488
29 255 32 34 36 38 40 48 49 51 53 57 58 131 67 72 75 76 78 80 82 93 96 97 102 104 107 108 110 111 118 125 126 137 139 141 143 148 150 151 153 155 156 159 165 169 174 183 184 189 193 196 198 201 207 209 213 215 216 218 221 222 224 225 227 228 233 235 237 238 244 246 248 249
30 257
31 431
32 250 34 36 40 51 53 58 72 82 97 102 110 118 125 126 137 139 148 153 155 165 174 183 184 193 196 201 215 221 222 225 228 237 238 244 246 249
33 319
34 460 36 40 48 49 51 53 57 58 131 67 72 75 78 80 82 93 97 102 104 107 110 118 125 126 137 139 143 148 150 151 153 155 156 165 169 174 183 184 193 196 198 201 207 213 215 216 218 221 222 224 225 227 228 233 235 237 238 244 246 248 249
35 263 82 118 126 148 153 155 165 183 184 222 244 249
36 277 38 40 48 49 51 53 57 58 131 67 72 75 76 78 80 82 93 96 97 102 104 107 108 110 111 118 119 125 126 137 139 141 143 148 150 151 153 155 156 159 165 169 174 183 184 189 193 196 198 201 207 209 213 215 216 218 221 222 224 225 227 228 230 233 235 237 238 244 246 248 249
37 381
38 302 40 51 53 72 82 102 118 125 126 137 148 153 155 165 174 183 184 193 201 215 221 222 228 238 244 246 249
39 317
40 397 48 49 51 53 57 58 131 67 72 75 76 78 80 82 93 96 97 102 104 107 108 110 111 118 119 125 126 137 139 141 143 148 150 151 153 155 156 159 165 169 174 183 184 189 193 196 198 201 207 209 213 215 216 218 221 222 224 225 227 228 230 233 235 237 238 244 246 248 249
41 260
42 343
43 380
44 289
45 331
46 385
47 250
48 365 51 53 57 58 72 78 82 93 97 102 104 110 118 125 126 137 139 148 150 151 153 155 165 169 174 183 184 193 196 198 201 207 215 216 218 221 222 224 225 228 235 237 238 244 246 249
49 441 51 53 72 82 102 110 118 125 126 137 148 153 155 165 174 183 184 193 196 201 215 221 222 228 238 244 246 249
50 263
51 296 53 57 58 131 67 72 75 76 78 80 82 93 97 102 104 107 108 110 118 125 126 137 139 141 143 148 150 151 153 155 156 165 169 174 183 184 189 193 196 198 201 207 213 215 216 218 221 222 224 225 227 228 233 235 237 238 244 246 248 249
52 492
53 253 57 58 131 67 72 75 76 78 80 82 93 96 97 102 104 107 108 110 111 118 125 126 137 139 141 143 148 150 151 153 155 156 159 165 169 174 183 184 189 193 196 198 201 207 209 213 215 216 218 221 222 224 225 227 228 233 235 237 238 244 246 248 249
54 255
55 431
56 260
57 309 58 131 67 72 75 78 82 93 97 102 104 110 118 125 126 137 139 148 150 151 153 155 165 169 174 183 184 193 196 198 201 207 215 216 218 221 222 224 225 227 228 235 237 238 244 246 248 249
58 487 131 67 72 75 78 80 82 93 97 102 104 107 110 118 125 126 137 139 143 148 150 151 153 155 156 165 169 174 183 184 193 196 198 201 207 213 215 216 218 221 222 224 225 227 228 233 235 237 238 244 246 248 249
59 255
60 258
61 407
62 259
63 334 126
64 480
65 255
66 265
67 428 72 78 82 93 97 102 104 110 118 125 126 137 139 148 153 155 165 169 174 183 184 193 196 198 201 215 218 221 222 225 228 237 238 244 246 249
68 279
69 293
70 387
71 281
72 332 131 75 76 78 80 82 93 97 102 104 107 108 110 111 118 125 126 137 139 141 143 148 150 151 153 155 156 159 165 169 174 183 184 189 193 196 198 201 207 209 213 215 216 218 221 222 224 225 227 228 233 235 237 238 244 246 248 249
73 444
74 251
75 305 78 82 97 102 110 118 125 126 137 139 148 153 155 165 169 174 183 184 193 196 198 201 215 218 221 222 225 228 237 238 244 246 249
76 489 82 102 118 125 126 137 148 153 155 165 174 183 184 193 201 215 221 222 228 238 244 246 249
77 254
78 257 131 82 93 97 102 104 107 110 118 125 126 137 139 143 148 150 151 153 155 165 169 174 183 184 193 196 198 201 207 215 216 218 221 222 224 225 227 228 235 237 238 244 246 248 249
79 372
80 251 82 97 102 110 118 125 126 137 148 153 155 165 174 183 184 193 196 201 215 221 222 228 237 238 244 246 249
81 377
82 452 131 84 89 93 96 97 100 101 102 104 107 108 110 111 118 119 120 125 126 129 137 139 141 143 147 148 150 151 153 155 156 159 160 165 169 174 183 184 189 193 196 197 198 199 201 207 209 213 215 216 218 221 222 224 225 227 228 229 230 233 235 237 238 244 246 247 248 249
83 257
84 291 102 118 126 148 153 155 165 174 183 184 222 244 249
85 428
86 271
87 301
88 422
89 253 126 148 153 155 165 183 222 244 249
90 325
91 358
92 260
93 382 97 102 104 110 118 125 126 137 139 148 150 151 153 155 165 169 174 183 184 193 196 198 201 207 215 216 218 221 222 224 225 227 228 235 237 238 244 246 249
94 497
95 250
96 253 102 118 125 126 148 153 155 165 174 183 184 201 221 222 244 246 249
97 382 131 102 104 107 110 118 125 126 137 139 143 148 150 151 153 155 156 165 169 174 183 184 193 196 198 201 207 213 215 216 218 221 222 224 225 227 228 233 235 237 238 244 246 248 249
98 306
99 312
100 359 126 148 153 155 165 183 222 244 249
101 269 126 249
102 372 131 104 107 108 110 111 118 119 125 126 137 139 141 143 148 150 151 153 155 156 159 165 169 174 183 184 189 193 196 198 201 207 209 213 215 216 218 221 222 224 225 227 228 230 233 235 237 238 244 246 248 249
103 409
104 293 110 118 125 126 137 139 148 150 151 153 155 165 169 174 183 184 193 196 198 201 207 215 216 218 221 222 224 225 227 228 235 237 238 244 246 249
105 298
106 491
107 252 110 118 125 126 137 139 148 153 155 165 174 183 184 193 196 201 215 221 222 225 228 237 238 244 246 249
108 257 118 125 126 137 148 153 155 165 174 183 184 193 201 215 221 222 228 238 244 246 249
109 434
110 271 131 118 125 126 137 139 143 148 150 151 153 155 156 165 169 174 183 184 193 196 198 201 207 213 215 216 218 221 222 224 225 227 228 233 235 237 238 244 246 248 249
111 295 118 125 126 137 148 153 155 165 174 183 184 193 201 215 221 222 244 246 249
112 369
113 252 126 249
114 379
115 383
116 288
117 329
118 393 131 119 125 126 137 139 141 143 148 150 151 153 155 156 159 160 165 169 174 183 184 189 193 196 198 201 207 209 213 215 216 218 221 222 224 225 227 228 229 230 233 235 237 238 244 246 248 249
119 263 126 148 153 155 165 174 183 184 222 244 246 249
120 344 126 148 153 155 165 183 222 244 249
121 438
122 259
123 303
124 451
125 267 131 126 137 139 141 143 148 150 151 153 155 156 159 165 169 174 183 184 189 193 196 198 201 207 209 213 215 216 218 221 222 224 225 227 228 230 233 235 237 238 244 246 248 249
126 282 131 129 137 139 141 143 147 148 150 151 153 155 156 159 160 165 169 174 183 184 189 190 193 196 197 198 199 201 207 209 213 215 216 218 221 222 224 225 227 228 229 230 233 235 237 238 244 246 247 248 249
127 494
128 252
129 254 148 153 155 183 222 244 249
130 391
131 288 137 139 148 153 155 165 169 174 183 184 193 196 198 201 215 218 221 222 225 228 237 238 244 246 249
132 321
133 376
134 264
135 360
136 499
137 250 139 141 143 148 150 151 153 155 156 159 165 169 174 183 184 189 193 196 198 201 207 209 213 215 216 218 221 222 224 225 227 228 233 235 237 238 244 246 248 249
138 251
139 381 143 148 150 151 153 155 156 165 169 174 183 184 193 196 198 201 207 215 216 218 221 222 224 225 227 228 235 237 238 244 246 248 249
140 255
141 364 148 153 155 165 174 183 184 193 201 215 221 222 228 238 244 246 249
142 353
143 311 148 153 155 165 174 183 184 193 196 198 201 215 221 222 225 228 237 238 244 246 249
144 336
145 440
146 269
147 291 148 153 155 183 222 244 249
148 457 150 151 153 155 156 159 160 165 169 174 183 184 189 193 196 197 198 199 201 207 209 213 215 216 218 221 222 224 225 227 228 229 230 233 235 237 238 244 246 248 249
149 267
150 276 153 155 165 169 174 183 184 193 196 198 201 215 218 221 222 224 225 228 237 238 244 246 249
151 452 153 155 165 169 174 183 184 193 196 198 201 215 218 221 222 224 225 228 235 237 238 244 246 249
152 270
153 278 155 156 159 160 165 169 174 183 184 189 193 196 197 198 199 201 207 209 213 215 216 218 221 222 224 225 227 228 229 230 233 235 237 238 244 246 248 249
154 404
155 262 156 159 160 165 169 174 183 184 189 193 196 197 198 199 201 207 209 213 215 216 218 221 222 224 225 227 228 229 230 233 235 237 238 244 246 248 249
156 334 165 174 183 184 193 196 201 215 221 222 225 228 237 238 244 246 249
157 398
158 293
159 309 165 174 183 184 193 201 215 221 222 244 246 249
160 360 165 183 184 222 244 249
161 279
162 361
163 425
164 284
165 291 169 174 183 184 189 193 196 197 198 201 207 209 213 215 216 218 221 222 224 225 227 228 229 230 233 235 237 238 244 246 248 249
166 491
167 251
168 258
169 451 174 183 184 193 196 198 201 207 215 216 218 221 222 224 225 227 228 235 237 238 244 246 249
170 272
171 277
172 446
173 276
174 278 183 184 189 193 196 198 201 207 209 213 215 216 218 221 222 224 225 227 228 230 233 235 237 238 244 246 248 249
175 497
176 250
177 253
178 437
179 254
180 309
181 469
182 254
183 277 184 189 193 196 197 198 199 201 207 209 213 215 216 218 221 222 224 225 227 228 229 230 233 235 237 238 244 246 248 249
184 437 189 193 196 198 201 207 209 213 215 216 218 221 222 224 225 227 228 229 230 233 235 237 238 244 246 248 249
185 279
186 284
187 354
188 311
189 335 193 196 201 215 221 222 228 238 244 246 249
190 425 249
191 250
192 325
193 461 196 198 201 207 209 213 215 216 218 221 222 224 225 227 228 233 235 237 238 244 246 248 249
194 258
195 281
196 416 198 201 207 213 215 216 218 221 222 224 225 227 228 233 235 237 238 244 246 248 249
197 270 222 244 249
198 314 201 207 215 216 218 221 222 224 225 227 228 235 237 238 244 246 248 249
199 459 222 244 249
200 258
201 283 207 209 213 215 216 218 221 222 224 225 227 228 233 235 237 238 244 246 248 249
202 400
203 271
204 329
205 468
206 250
207 282 215 218 221 222 224 225 228 235 237 238 244 246 249
208 370
209 269 215 221 222 244 246 249
210 361
211 422
212 256
213 322 215 221 222 228 237 238 244 246 249
214 407
215 260 216 218 221 222 224 225 227 228 233 235 237 238 244 246 248 249
216 333 218 221 222 224 225 228 237 238 244 246 249
217 382
218 250 221 222 224 225 227 228 235 237 238 244 246 249
219 368
220 449
221 254 222 224 225 227 228 230 233 235 237 238 244 246 248 249
222 297 224 225 227 228 229 230 233 235 237 238 244 246 248 249
223 426
224 258 225 227 228 235 237 238 244 246 249
225 316 227 228 235 237 238 244 246 248 249
226 464
227 267 228 237 238 244 246 249
228 269 233 235 237 238 244 246 248 249
229 415 244 249
230 254 244 246 249
231 331
232 392
233 280 237 238 244 246 249
234 328
235 415 237 238 244 246 249
236 284
237 301 238 244 246 248 249
238 432 244 246 248 249
239 279
240 289
241 410
242 267
243 323
244 385 246 248 249
245 252
246 363 248 249
247 368 249
248 292 249
249 340
